% demand
num_movements = 29;
loading_factor = [1150, 1950, 1600, 1600, 1500, 1100, 1750, 900, 1350, 1150, 800, 1800, 850, 1150, 800, 1200, 1000, 1800, 1250, 1300, 1100, 1100, 1300, 1050, 950, 1550, 1850, 1500, 1050];
pickup_time = [0, 0, 0, 0, 2, 2, 2, 3, 3, 3, 4, 5, 7, 7, 7, 7, 7, 8, 10, 10, 10, 11, 11, 11, 11, 11, 12, 12, 13];
delivery_time = [3, 1, 1, 1, 3, 8, 6, 10, 4, 4, 6, 6, 10, 8, 10, 10, 10, 10, 11, 11, 11, 12, 12, 14, 13, 14, 14, 14, 14];

% transporter definition
total_capacity = 7000;
num_decks = 3;
capacity = [3000, 1000, 3000];

% ways out of decks
num_ways_out = 1;
paths_out = array3d(decks, ways_out, decks, [
% ways out of deck d1
2, 3, 0, 

% ways out of deck d2
3, 0, 0, 

% ways out of deck d3
0, 0, 0,	

]);

